# Objective value = 5.0839999994915743e+04
y 2.5419999997457871e+03
x1 313
r1 1
y1 2.1289999997457871e+03
x2 424
r2 0
y2 335
x3 1149
r3 1
y3 0
x4 0
r4 0
y4 1592
x5 631
r5 0
y5 1.9019999997457871e+03
x6 554
r6 1
y6 213
x7 990
r7 0
y7 423
x8 513
r8 0
y8 1.4749999997457862e+03
x9 1160
r9 0
y9 540
x10 0
r10 0
y10 1.9889999997458003e+03
x11 513
r11 1
y11 7.3699999974578532e+02
x12 732
r12 0
y12 1.5809999997457880e+03
x13 226
r13 0
y13 0
x14 533
r14 1
y14 2.2259999997457871e+03
x15 947
r15 1
y15 1068
x16 846
r16 1
y16 1.7019999997457871e+03
x17 1152
r17 0
y17 214
x18 933
r18 1
y18 649
x19 879
r19 0
y19 321
x20 670
r20 1
y20 0
x21 0
r21 0
y21 748
x22 935
r22 0
y22 0
x23 856
r23 0
y23 2.2199999997457871e+03
x24 313
r24 1
y24 2.0129999997457990e+03
x25 947
r25 1
y25 1.4849999997457958e+03
x26 519
r26 0
y26 9.4999999974578532e+02
x27 0
r27 1
y27 0
x28 737
r28 0
y28 1059
x29 226
r29 1
y29 222
x30 441
r30 1
y30 0
x31 0
r31 0
y31 2.2179999997458003e+03
x32 0
r32 1
y32 335
x33 0
r33 0
y33 1068
p12 1
q12 1
p13 0
q13 0
p14 1
q14 1
p15 0
q15 0
p16 1
q16 1
p17 0
q17 0
p18 1
q18 1
p19 0
q19 0
p110 1
q110 0
p111 1
q111 1
p112 1
q112 1
p113 1
q113 1
p114 0
q114 0
p115 0
q115 0
p116 0
q116 0
p117 0
q117 0
p118 1
q118 1
p119 0
q119 0
p120 1
q120 1
p121 1
q121 1
p122 0
q122 0
p123 0
q123 0
p124 1
q124 1
p125 0
q125 0
p126 1
q126 1
p127 1
q127 1
p128 1
q128 1
p129 1
q129 1
p130 1
q130 1
p131 1
q131 0
p132 1
q132 1
p133 1
q133 1
p23 0
q23 0
p24 0
q24 1
p25 0
q25 1
p26 0
q26 0
p27 0
q27 0
p28 0
q28 1
p29 0
q29 0
p210 0
q210 1
p211 0
q211 1
p212 0
q212 1
p213 1
q213 1
p214 0
q214 1
p215 0
q215 0
p216 0
q216 0
p217 0
q217 0
p218 0
q218 0
p219 0
q219 0
p220 0
q220 0
p221 0
q221 1
p222 0
q222 0
p223 0
q223 0
p224 0
q224 1
p225 0
q225 0
p226 0
q226 1
p227 1
q227 1
p228 0
q228 0
p229 1
q229 1
p230 1
q230 1
p231 0
q231 1
p232 1
q232 0
p233 0
q233 1
p34 1
q34 0
p35 0
q35 1
p36 1
q36 0
p37 0
q37 1
p38 0
q38 1
p39 0
q39 1
p310 1
q310 0
p311 1
q311 0
p312 0
q312 1
p313 1
q313 0
p314 0
q314 1
p315 0
q315 1
p316 0
q316 1
p317 0
q317 1
p318 0
q318 1
p319 1
q319 0
p320 1
q320 0
p321 1
q321 0
p322 1
q322 0
p323 0
q323 1
p324 0
q324 1
p325 0
q325 1
p326 1
q326 0
p327 1
q327 0
p328 1
q328 0
p329 1
q329 0
p330 1
q330 0
p331 1
q331 0
p332 1
q332 0
p333 1
q333 0
p45 0
q45 0
p46 0
q46 0
p47 0
q47 0
p48 0
q48 0
p49 0
q49 0
p410 0
q410 1
p411 0
q411 0
p412 0
q412 0
p413 1
q413 1
p414 0
q414 1
p415 0
q415 0
p416 0
q416 0
p417 0
q417 0
p418 0
q418 0
p419 1
q419 1
p420 1
q420 1
p421 1
q421 1
p422 0
q422 0
p423 0
q423 0
p424 0
q424 1
p425 0
q425 0
p426 0
q426 0
p427 1
q427 1
p428 0
q428 0
p429 1
q429 1
p430 1
q430 1
p431 0
q431 1
p432 1
q432 1
p433 1
q433 1
p56 1
q56 1
p57 1
q57 1
p58 1
q58 1
p59 0
q59 0
p510 1
q510 0
p511 1
q511 1
p512 1
q512 1
p513 1
q513 1
p514 0
q514 1
p515 1
q515 1
p516 0
q516 0
p517 1
q517 1
p518 0
q518 0
p519 1
q519 1
p520 1
q520 1
p521 1
q521 0
p522 1
q522 1
p523 0
q523 0
p524 1
q524 0
p525 0
q525 0
p526 1
q526 1
p527 1
q527 0
p528 1
q528 1
p529 1
q529 1
p530 1
q530 1
p531 1
q531 0
p532 1
q532 1
p533 1
q533 0
p67 0
q67 0
p68 0
q68 1
p69 0
q69 0
p610 0
q610 1
p611 0
q611 1
p612 0
q612 1
p613 1
q613 0
p614 0
q614 1
p615 0
q615 0
p616 0
q616 1
p617 0
q617 0
p618 0
q618 0
p619 0
q619 0
p620 1
q620 1
p621 1
q621 0
p622 0
q622 0
p623 0
q623 1
p624 0
q624 1
p625 0
q625 0
p626 0
q626 1
p627 1
q627 0
p628 0
q628 1
p629 1
q629 0
p630 1
q630 1
p631 1
q631 0
p632 1
q632 0
p633 1
q633 0
p78 0
q78 1
p79 0
q79 0
p710 1
q710 0
p711 0
q711 1
p712 0
q712 1
p713 1
q713 0
p714 0
q714 1
p715 0
q715 1
p716 0
q716 1
p717 0
q717 0
p718 0
q718 1
p719 1
q719 0
p720 1
q720 1
p721 1
q721 0
p722 1
q722 1
p723 0
q723 1
p724 0
q724 1
p725 0
q725 1
p726 0
q726 1
p727 1
q727 0
p728 0
q728 1
p729 1
q729 0
p730 1
q730 1
p731 0
q731 1
p732 1
q732 0
p733 1
q733 0
p89 0
q89 0
p810 1
q810 0
p811 1
q811 1
p812 0
q812 0
p813 1
q813 1
p814 0
q814 1
p815 0
q815 0
p816 0
q816 0
p817 1
q817 1
p818 1
q818 1
p819 1
q819 1
p820 1
q820 1
p821 1
q821 0
p822 0
q822 0
p823 0
q823 0
p824 0
q824 1
p825 0
q825 0
p826 1
q826 1
p827 1
q827 0
p828 0
q828 0
p829 1
q829 1
p830 1
q830 1
p831 0
q831 1
p832 1
q832 1
p833 1
q833 0
p910 0
q910 1
p911 1
q911 0
p912 1
q912 0
p913 1
q913 0
p914 0
q914 1
p915 0
q915 1
p916 0
q916 1
p917 1
q917 1
p918 1
q918 0
p919 1
q919 0
p920 1
q920 0
p921 1
q921 0
p922 1
q922 0
p923 0
q923 1
p924 0
q924 1
p925 0
q925 1
p926 1
q926 0
p927 1
q927 0
p928 1
q928 0
p929 1
q929 0
p930 1
q930 0
p931 1
q931 0
p932 1
q932 0
p933 1
q933 0
p1011 0
q1011 0
p1012 0
q1012 0
p1013 1
q1013 1
p1014 0
q1014 0
p1015 0
q1015 0
p1016 0
q1016 0
p1017 1
q1017 1
p1018 0
q1018 0
p1019 1
q1019 1
p1020 1
q1020 1
p1021 1
q1021 1
p1022 0
q1022 0
p1023 0
q1023 0
p1024 0
q1024 0
p1025 0
q1025 0
p1026 0
q1026 0
p1027 1
q1027 1
p1028 0
q1028 0
p1029 1
q1029 1
p1030 0
q1030 0
p1031 0
q1031 1
p1032 1
q1032 1
p1033 1
q1033 1
p1112 0
q1112 1
p1113 1
q1113 0
p1114 0
q1114 1
p1115 0
q1115 0
p1116 0
q1116 1
p1117 1
q1117 1
p1118 0
q1118 0
p1119 1
q1119 1
p1120 1
q1120 1
p1121 1
q1121 0
p1122 0
q1122 0
p1123 0
q1123 1
p1124 0
q1124 1
p1125 0
q1125 0
p1126 0
q1126 1
p1127 1
q1127 0
p1128 0
q1128 1
p1129 1
q1129 1
p1130 1
q1130 1
p1131 1
q1131 0
p1132 1
q1132 0
p1133 0
q1133 1
p1213 1
q1213 1
p1214 0
q1214 1
p1215 0
q1215 0
p1216 0
q1216 0
p1217 0
q1217 0
p1218 1
q1218 1
p1219 0
q1219 0
p1220 1
q1220 1
p1221 1
q1221 0
p1222 0
q1222 0
p1223 0
q1223 0
p1224 1
q1224 0
p1225 0
q1225 0
p1226 1
q1226 1
p1227 1
q1227 0
p1228 1
q1228 1
p1229 1
q1229 1
p1230 1
q1230 1
p1231 0
q1231 1
p1232 1
q1232 1
p1233 1
q1233 0
p1314 0
q1314 1
p1315 0
q1315 0
p1316 0
q1316 0
p1317 0
q1317 0
p1318 0
q1318 0
p1319 0
q1319 0
p1320 0
q1320 0
p1321 0
q1321 1
p1322 0
q1322 0
p1323 0
q1323 0
p1324 0
q1324 1
p1325 0
q1325 0
p1326 0
q1326 0
p1327 1
q1327 0
p1328 0
q1328 0
p1329 0
q1329 1
p1330 0
q1330 0
p1331 0
q1331 1
p1332 0
q1332 1
p1333 0
q1333 1
p1415 0
q1415 0
p1416 1
q1416 1
p1417 0
q1417 0
p1418 0
q1418 0
p1419 1
q1419 1
p1420 1
q1420 1
p1421 1
q1421 1
p1422 0
q1422 0
p1423 0
q1423 0
p1424 1
q1424 1
p1425 0
q1425 0
p1426 1
q1426 1
p1427 1
q1427 1
p1428 1
q1428 1
p1429 1
q1429 1
p1430 1
q1430 1
p1431 1
q1431 0
p1432 1
q1432 1
p1433 1
q1433 1
p1516 0
q1516 1
p1517 1
q1517 1
p1518 1
q1518 1
p1519 1
q1519 1
p1520 1
q1520 0
p1521 1
q1521 0
p1522 1
q1522 1
p1523 0
q1523 1
p1524 0
q1524 1
p1525 0
q1525 1
p1526 1
q1526 0
p1527 1
q1527 0
p1528 1
q1528 0
p1529 1
q1529 0
p1530 1
q1530 0
p1531 1
q1531 0
p1532 1
q1532 0
p1533 1
q1533 0
p1617 1
q1617 1
p1618 1
q1618 1
p1619 1
q1619 1
p1620 1
q1620 1
p1621 1
q1621 0
p1622 1
q1622 1
p1623 0
q1623 1
p1624 1
q1624 0
p1625 1
q1625 1
p1626 1
q1626 0
p1627 1
q1627 0
p1628 1
q1628 1
p1629 1
q1629 0
p1630 1
q1630 1
p1631 1
q1631 0
p1632 1
q1632 0
p1633 1
q1633 0
p1718 0
q1718 1
p1719 1
q1719 0
p1720 1
q1720 0
p1721 1
q1721 0
p1722 1
q1722 0
p1723 0
q1723 1
p1724 0
q1724 1
p1725 0
q1725 1
p1726 1
q1726 0
p1727 1
q1727 0
p1728 0
q1728 1
p1729 1
q1729 0
p1730 1
q1730 0
p1731 0
q1731 1
p1732 1
q1732 0
p1733 1
q1733 0
p1819 1
q1819 1
p1820 1
q1820 1
p1821 1
q1821 0
p1822 1
q1822 1
p1823 0
q1823 1
p1824 0
q1824 1
p1825 0
q1825 1
p1826 1
q1826 0
p1827 1
q1827 0
p1828 0
q1828 1
p1829 1
q1829 0
p1830 1
q1830 0
p1831 1
q1831 0
p1832 1
q1832 0
p1833 1
q1833 0
p1920 1
q1920 1
p1921 1
q1921 0
p1922 1
q1922 1
p1923 0
q1923 1
p1924 0
q1924 1
p1925 0
q1925 1
p1926 1
q1926 0
p1927 1
q1927 0
p1928 0
q1928 1
p1929 1
q1929 0
p1930 1
q1930 0
p1931 0
q1931 1
p1932 1
q1932 0
p1933 1
q1933 0
p2021 0
q2021 1
p2022 0
q2022 0
p2023 0
q2023 1
p2024 0
q2024 1
p2025 0
q2025 1
p2026 0
q2026 1
p2027 1
q2027 0
p2028 0
q2028 1
p2029 1
q2029 0
p2030 1
q2030 0
p2031 0
q2031 1
p2032 0
q2032 1
p2033 0
q2033 1
p2122 0
q2122 0
p2123 0
q2123 0
p2124 0
q2124 1
p2125 0
q2125 0
p2126 0
q2126 0
p2127 1
q2127 1
p2128 0
q2128 0
p2129 1
q2129 1
p2130 1
q2130 1
p2131 0
q2131 1
p2132 1
q2132 1
p2133 0
q2133 1
p2223 0
q2223 1
p2224 0
q2224 1
p2225 0
q2225 1
p2226 0
q2226 1
p2227 1
q2227 0
p2228 0
q2228 1
p2229 1
q2229 0
p2230 1
q2230 0
p2231 0
q2231 1
p2232 1
q2232 0
p2233 1
q2233 0
p2324 1
q2324 0
p2325 1
q2325 1
p2326 1
q2326 0
p2327 1
q2327 0
p2328 1
q2328 1
p2329 1
q2329 0
p2330 1
q2330 1
p2331 1
q2331 0
p2332 1
q2332 0
p2333 1
q2333 0
p2425 0
q2425 0
p2426 1
q2426 1
p2427 1
q2427 0
p2428 1
q2428 1
p2429 1
q2429 1
p2430 1
q2430 1
p2431 1
q2431 0
p2432 1
q2432 1
p2433 1
q2433 1
p2526 1
q2526 0
p2527 1
q2527 0
p2528 1
q2528 0
p2529 1
q2529 0
p2530 1
q2530 0
p2531 1
q2531 0
p2532 1
q2532 0
p2533 1
q2533 0
p2627 1
q2627 0
p2628 0
q2628 0
p2629 1
q2629 1
p2630 1
q2630 1
p2631 0
q2631 1
p2632 1
q2632 0
p2633 1
q2633 0
p2728 0
q2728 0
p2729 0
q2729 0
p2730 0
q2730 0
p2731 0
q2731 1
p2732 0
q2732 1
p2733 0
q2733 1
p2829 1
q2829 0
p2830 1
q2830 1
p2831 1
q2831 0
p2832 1
q2832 0
p2833 1
q2833 0
p2930 1
q2930 1
p2931 0
q2931 1
p2932 0
q2932 1
p2933 0
q2933 1
p3031 1
q3031 0
p3032 1
q3032 0
p3033 0
q3033 1
p3132 1
q3132 1
p3133 1
q3133 1
p3233 0
q3233 1
